tsp_instances/TSP20/instance26.tsp
NODE_COORD_SECTION
0 174 3
1 4 27
2 146 129
3 51 19
4 105 105
5 40 113
6 92 87
7 63 9
8 1 186
9 116 168
10 116 182
11 40 106
12 62 31
13 164 186
14 171 100
15 7 162
16 13 148
17 97 85
18 89 138
19 11 198
