tsp_instances/TSP20/instance26.opt.tour
TOUR_SECTION
1
8
13
4
2
17
16
9
20
6
12
7
18
5
19
10
11
14
3
15
-1